% File represents an instance of a Composite Structure problem to be solved by a CP framework
% Created on 2025-03-26 10:41:38.941
T = 56;
n = 25;
m = 40;
edges = [(1, 2),
(7, 6),
(12, 11),
(17, 16),
(22, 21),
(3, 2),
(8, 7),
(13, 12),
(18, 17),
(23, 22),
(4, 3),
(8, 9),
(13, 14),
(19, 18),
(23, 24),
(5, 4),
(10, 9),
(15, 14),
(19, 20),
(24, 25),
(1, 6),
(11, 6),
(11, 16),
(21, 16),
(7, 2),
(12, 7),
(12, 17),
(22, 17),
(8, 3),
(13, 8),
(13, 18),
(23, 18),
(4, 9),
(14, 9),
(19, 14),
(19, 24),
(10, 5),
(15, 10),
(15, 20),
(20, 25)];
counts = [|8, 22, 8, 10,
|8, 18, 8, 8,
|8, 20, 8, 8,
|8, 24, 8, 10,
|8, 24, 8, 12,
|6, 20, 6, 10,
|8, 20, 8, 10,
|8, 22, 8, 12,
|8, 22, 8, 10,
|8, 24, 8, 14,
|6, 22, 6, 12,
|8, 22, 8, 14,
|8, 26, 8, 14,
|8, 22, 8, 12,
|8, 26, 8, 14,
|6, 22, 6, 10,
|8, 22, 8, 10,
|8, 24, 8, 14,
|8, 26, 8, 14,
|6, 24, 6, 14,
|8, 22, 8, 10,
|8, 26, 8, 12,
|8, 26, 8, 14,
|6, 24, 6, 14,
|6, 22, 6, 12|];
